8
28
0 1 89
0 2 71
0 3 26
0 4 63
0 5 23
0 6 95
0 7 42
1 2 116
1 3 65
1 4 152
1 5 84
1 6 76
1 7 47
2 3 51
2 4 96
2 5 48
2 6 166
2 7 111
3 4 89
3 5 21
3 6 115
3 7 60
4 5 68
4 6 76
4 7 105
5 6 118
5 7 63
6 7 55
